(set-logic ALL)
(declare-fun var0 () String)
(assert (str.in_re var0 (re.++ (re.* (re.union (str.to_re "000") (str.to_re "1"))) (re.++ (re.union (re.union (str.to_re "22") (str.to_re "33")) (re.union (str.to_re "4") (str.to_re "555"))) (re.++ (re.* (re.* (str.to_re "6"))) (re.++ (re.union (re.union (str.to_re "777") (str.to_re "888")) (re.union (str.to_re "99") (str.to_re "aa"))) (re.++ (re.+ (re.union (str.to_re "bbb") (str.to_re "ccc"))) (re.++ (re.union (re.+ (str.to_re "dd")) (re.+ (str.to_re "e"))) (re.++ (re.union (re.+ (str.to_re "ff")) (re.+ (str.to_re "ggg"))) (re.++ (re.* (re.union (str.to_re "hhh") (str.to_re "i"))) (re.++ (re.* (re.+ (str.to_re "jj"))) (re.++ (re.* (re.+ (str.to_re "k"))) (re.++ (re.union (re.+ (str.to_re "lll")) (re.+ (str.to_re "mm"))) (re.++ (re.union (re.union (str.to_re "nn") (str.to_re "oo")) (re.union (str.to_re "p") (str.to_re "qqq"))) (re.++ (re.union (re.+ (str.to_re "r")) (re.+ (str.to_re "s"))) (re.++ (re.union (re.union (str.to_re "tt") (str.to_re "uu")) (re.union (str.to_re "v") (str.to_re "w"))) (re.++ (re.union (re.union (str.to_re "x") (str.to_re "yyy")) (re.union (str.to_re "z") (str.to_re "A"))) (re.++ (re.union (re.union (str.to_re "BB") (str.to_re "C")) (re.union (str.to_re "D") (str.to_re "EE"))) (re.++ (re.* (re.* (str.to_re "FF"))) (re.++ (re.union (re.union (str.to_re "G") (str.to_re "HH")) (re.union (str.to_re "II") (str.to_re "J"))) (re.++ (re.* (re.union (str.to_re "KKK") (str.to_re "LL"))) (re.++ (re.+ (re.* (str.to_re "M"))) (re.++ (re.+ (re.* (str.to_re "NN"))) (re.++ (re.* (re.+ (str.to_re "OOO"))) (re.++ (re.+ (re.+ (str.to_re "PP"))) (re.++ (re.* (re.+ (str.to_re "QQ"))) (re.* (re.union (str.to_re "R") (str.to_re "SSS")))))))))))))))))))))))))))))
(check-sat)